p tw 43 48
1 2
2 13
3 4
4 5
5 6
6 7
7 8
7 24
8 9
9 10
10 11
11 24
12 14
13 24
14 15
15 16
15 19
16 17
17 18
17 19
18 19
19 20
20 21
21 22
21 23
22 37
23 25
24 35
25 26
26 27
27 28
28 29
29 30
29 34
30 31
31 32
32 33
33 37
34 36
35 39
36 37
37 38
39 40
39 12
40 41
41 42
42 43
43 3
